data;


param d:= 100;
param r:=5;
param p:=0.600000;
param M:=1000;
param U:=
         1         1        1.143556e+00
         2         1        3.802279e-01
         3         1        2.132784e+00
         4         1       -7.315579e-01
         5         1        2.458910e-02
         6         1        1.879265e+00
         7         1        2.128325e+00
         8         1        8.367922e-01
         9         1       -1.728518e-01
        10         1       -4.849297e-01
        11         1        2.694385e-01
        12         1        3.536541e-01
        13         1        1.797538e+00
        14         1        1.518740e-01
        15         1        1.041795e+00
        16         1        8.815476e-01
        17         1        1.435485e+00
        18         1       -2.231653e-01
        19         1       -1.993403e+00
        20         1        2.186059e-01
        21         1        1.366950e+00
        22         1       -4.425389e-01
        23         1       -7.634317e-01
        24         1       -2.741855e-02
        25         1        9.698753e-01
        26         1        5.323193e-01
        27         1        2.171429e-01
        28         1       -1.435235e-02
        29         1        1.274942e-01
        30         1        3.072143e-01
        31         1        1.068549e+00
        32         1       -1.071357e+00
        33         1        6.458512e-02
        34         1       -8.692840e-01
        35         1       -7.969521e-01
        36         1       -1.070720e+00
        37         1        7.740491e-02
        38         1       -5.630834e-01
        39         1        1.445828e+00
        40         1       -1.428833e+00
        41         1        1.876593e+00
        42         1       -3.055471e-01
        43         1       -2.013900e-01
        44         1        1.149343e-01
        45         1        1.008262e+00
        46         1       -5.497365e-01
        47         1        1.057812e+00
        48         1       -9.092700e-01
        49         1        1.018314e+00
        50         1        1.251322e+00
        51         1       -4.958209e-01
        52         1       -2.655846e-01
        53         1        4.823118e-01
        54         1        5.102045e-01
        55         1        7.888291e-01
        56         1       -7.873363e-01
        57         1        9.579060e-01
        58         1       -1.468827e+00
        59         1       -1.697237e-01
        60         1       -1.809805e-01
        61         1       -3.423579e-01
        62         1        3.392646e-01
        63         1       -7.171803e-01
        64         1        1.419784e+00
        65         1       -6.747151e-01
        66         1       -1.931489e-01
        67         1        1.313136e+00
        68         1        1.300262e-01
        69         1        3.495848e-01
        70         1       -8.287298e-01
        71         1       -1.123986e-01
        72         1        5.380822e-01
        73         1       -7.157555e-01
        74         1        5.484529e-01
        75         1       -3.012107e-01
        76         1       -6.574729e-01
        77         1        3.488231e-01
        78         1       -1.506570e+00
        79         1        1.447857e+00
        80         1       -5.608586e-01
        81         1        2.383312e-01
        82         1       -1.573526e+00
        83         1       -1.088597e+00
        84         1       -1.797644e+00
        85         1       -2.267558e-01
        86         1       -5.260671e-01
        87         1       -1.028118e+00
        88         1       -8.002473e-01
        89         1       -1.452594e+00
        90         1        1.220942e+00
        91         1        8.613750e-01
        92         1       -1.255862e+00
        93         1       -2.737997e-01
        94         1       -1.421221e+00
        95         1        1.123045e+00
        96         1       -1.002030e-01
        97         1        1.347720e+00
        98         1       -5.259900e-01
        99         1       -5.564462e-01
       100         1        7.849672e-01
         1         2       -1.243822e+00
         2         2       -1.341689e+00
         3         2        1.159566e+00
         4         2       -7.196448e-01
         5         2        5.296613e-01
         6         2       -5.897108e-01
         7         2        4.425042e-01
         8         2        2.553586e-01
         9         2        3.187549e-01
        10         2        1.431844e+00
        11         2        1.397005e+00
        12         2       -8.836705e-01
        13         2        1.687275e+00
        14         2       -3.119271e-01
        15         2       -7.407121e-01
        16         2        1.509889e+00
        17         2        9.452685e-01
        18         2        5.521620e-01
        19         2        1.724308e-01
        20         2        1.279186e-01
        21         2        9.837679e-01
        22         2        3.927892e-01
        23         2       -3.686076e-01
        24         2       -1.868910e+00
        25         2        3.196872e-01
        26         2        7.126122e-01
        27         2        1.863474e+00
        28         2       -1.402187e+00
        29         2        1.088525e+00
        30         2        5.596920e-01
        31         2       -4.260024e-01
        32         2        1.531792e+00
        33         2        2.157962e+00
        34         2       -7.224324e-01
        35         2        1.719360e+00
        36         2        4.178433e-02
        37         2       -1.325013e+00
        38         2        9.672548e-01
        39         2       -1.731765e+00
        40         2        1.831608e+00
        41         2       -1.051390e-01
        42         2       -5.298297e-01
        43         2        1.015174e-02
        44         2        9.135347e-01
        45         2        7.682393e-01
        46         2        6.124203e-01
        47         2        5.559072e-02
        48         2       -1.949845e+00
        49         2        4.267636e-01
        50         2       -1.125667e+00
        51         2       -1.069516e+00
        52         2        2.327542e+00
        53         2        4.726176e-01
        54         2       -1.217280e-01
        55         2       -7.182154e-01
        56         2        1.948813e+00
        57         2        1.940076e+00
        58         2       -1.200740e+00
        59         2        2.041723e-01
        60         2       -1.952814e-02
        61         2       -8.690419e-01
        62         2        6.073599e-01
        63         2        4.328250e-01
        64         2        1.771768e+00
        65         2       -3.975118e-01
        66         2       -3.732134e-01
        67         2       -6.718121e-01
        68         2        1.148007e+00
        69         2       -5.697327e-01
        70         2        1.783146e+00
        71         2       -4.669896e-01
        72         2        3.390733e-01
        73         2        1.577506e+00
        74         2        8.525333e-01
        75         2        5.709577e-01
        76         2       -1.064285e+00
        77         2       -4.414480e-01
        78         2       -9.002531e-01
        79         2        2.568833e+00
        80         2       -1.248281e+00
        81         2        1.450143e+00
        82         2       -7.077663e-01
        83         2       -5.587913e-01
        84         2        8.678568e-01
        85         2       -7.520085e-01
        86         2        1.312846e-02
        87         2        3.792563e-02
        88         2       -3.463636e-02
        89         2       -1.021688e+00
        90         2       -9.271941e-01
        91         2        1.709080e-01
        92         2        1.656361e-01
        93         2        4.002488e-01
        94         2       -4.883897e-01
        95         2       -1.130881e-01
        96         2        1.731316e+00
        97         2       -6.792632e-01
        98         2        8.054210e-01
        99         2       -2.563664e-01
       100         2       -2.645753e-01
         1         3       -3.931170e-01
         2         3        2.024325e+00
         3         3        1.953349e+00
         4         3       -4.102128e-01
         5         3        4.457809e-01
         6         3        4.194065e-01
         7         3        1.720505e-01
         8         3       -7.208814e-02
         9         3        1.147612e+00
        10         3        4.668967e-01
        11         3        1.001123e+00
        12         3       -1.278079e+00
        13         3       -3.593679e-01
        14         3        3.597617e-01
        15         3       -9.023142e-01
        16         3        1.285879e+00
        17         3        2.857686e-01
        18         3       -6.444178e-01
        19         3       -6.582895e-01
        20         3       -7.115173e-01
        21         3       -2.075665e-01
        22         3        4.609395e-01
        23         3       -1.047870e+00
        24         3       -1.262958e+00
        25         3        1.030322e+00
        26         3        2.250716e-01
        27         3        1.710176e+00
        28         3       -6.937111e-01
        29         3        9.452822e-03
        30         3        1.816838e-01
        31         3       -1.019801e+00
        32         3       -1.070349e+00
        33         3       -6.625640e-01
        34         3        2.764106e-01
        35         3       -6.525327e-01
        36         3        9.706099e-01
        37         3       -9.777241e-01
        38         3        1.375084e-01
        39         3       -1.157631e+00
        40         3        5.101416e-02
        41         3       -1.639146e+00
        42         3        1.429957e+00
        43         3        2.703945e-01
        44         3       -1.845847e-01
        45         3        5.565135e-01
        46         3        1.055712e+00
        47         3        6.988029e-01
        48         3        1.934486e-01
        49         3        4.157115e-01
        50         3       -1.558736e-01
        51         3       -7.080415e-01
        52         3        1.056225e+00
        53         3        1.102128e+00
        54         3       -5.173496e-01
        55         3        1.269212e-01
        56         3       -8.886449e-01
        57         3       -5.094743e-01
        58         3        2.259013e-01
        59         3       -7.091172e-01
        60         3        1.032792e+00
        61         3       -1.515909e+00
        62         3       -1.396745e+00
        63         3       -6.518906e-01
        64         3        4.572294e-01
        65         3        9.072283e-01
        66         3        9.040305e-01
        67         3       -1.584782e-01
        68         3        4.753073e-01
        69         3        8.792136e-01
        70         3        2.964960e-02
        71         3        1.007592e+00
        72         3        5.973792e-01
        73         3        1.241678e-01
        74         3        8.353967e-01
        75         3       -3.156082e-02
        76         3        3.182075e-01
        77         3        1.105450e+00
        78         3       -1.127658e+00
        79         3       -1.804236e-01
        80         3       -2.270606e-01
        81         3       -6.002861e-01
        82         3       -9.389790e-01
        83         3        6.784559e-02
        84         3       -6.814757e-01
        85         3       -1.407445e+00
        86         3        4.848158e-01
        87         3       -1.107482e+00
        88         3       -3.197122e-01
        89         3        2.551613e-01
        90         3       -7.907733e-01
        91         3        3.401248e-01
        92         3        1.020205e+00
        93         3        2.295069e+00
        94         3       -9.902545e-01
        95         3       -1.717541e+00
        96         3       -1.124627e+00
        97         3        8.951998e-02
        98         3       -3.625122e-01
        99         3        8.457723e-01
       100         3       -1.609998e+00
         1         4       -3.165464e-01
         2         4       -4.486155e-01
         3         4       -3.393297e-01
         4         4       -5.238299e-01
         5         4        2.358997e+00
         6         4        2.639578e-01
         7         4       -7.183834e-01
         8         4        4.784105e-01
         9         4        1.186338e+00
        10         4       -1.016355e+00
        11         4        4.500260e-01
        12         4       -4.982374e-01
        13         4       -6.366476e-02
        14         4        2.459087e-01
        15         4        7.399336e-03
        16         4        4.326283e-01
        17         4        7.687568e-02
        18         4        2.218950e+00
        19         4        9.681008e-01
        20         4       -7.201209e-01
        21         4        7.082216e-01
        22         4       -9.601632e-02
        23         4       -1.647269e-01
        24         4       -3.175842e-01
        25         4        8.389427e-01
        26         4        1.119969e+00
        27         4       -2.398005e-01
        28         4        5.963023e-01
        29         4        1.556601e+00
        30         4        2.365724e+00
        31         4       -2.655872e+00
        32         4       -4.376629e-01
        33         4        5.363718e-01
        34         4       -4.273536e-01
        35         4        2.538367e-01
        36         4       -1.343057e+00
        37         4       -1.170140e+00
        38         4       -7.463325e-01
        39         4       -1.060293e+00
        40         4       -8.111620e-01
        41         4        3.011500e+00
        42         4       -9.368511e-01
        43         4       -2.170509e-01
        44         4        8.182918e-01
        45         4       -3.915847e-01
        46         4        6.845354e-01
        47         4       -2.275439e+00
        48         4       -1.616102e-01
        49         4       -2.850886e-01
        50         4       -6.776985e-01
        51         4        1.937842e-01
        52         4        1.057993e+00
        53         4       -1.871084e-01
        54         4        7.392442e-01
        55         4        4.169939e-01
        56         4       -1.074570e+00
        57         4        1.028181e+00
        58         4        3.005924e-01
        59         4        2.158604e+00
        60         4        9.851299e-01
        61         4        1.197467e-01
        62         4        1.215365e-01
        63         4        1.259753e+00
        64         4       -4.923293e-01
        65         4        3.136779e-01
        66         4       -8.483652e-01
        67         4       -1.032753e+00
        68         4        1.671876e-01
        69         4        8.844794e-01
        70         4        6.020782e-01
        71         4       -1.547037e+00
        72         4       -8.908900e-03
        73         4       -1.227497e+00
        74         4       -5.281517e-01
        75         4        3.096773e-01
        76         4        6.047360e-01
        77         4        4.098818e-01
        78         4        1.502269e+00
        79         4        1.312143e+00
        80         4        5.014532e-01
        81         4        3.585753e-01
        82         4        1.016009e+00
        83         4       -1.079135e-01
        84         4        2.094366e+00
        85         4       -1.124940e+00
        86         4       -4.351860e-01
        87         4       -1.247214e+00
        88         4       -6.485704e-01
        89         4        4.029975e-01
        90         4       -1.774082e+00
        91         4        6.500738e-02
        92         4        5.418130e-01
        93         4        9.407255e-01
        94         4        9.001982e-01
        95         4        4.790424e-01
        96         4        5.701552e-01
        97         4       -3.496240e-01
        98         4       -2.316183e-01
        99         4        4.537579e-01
       100         4        1.986834e+00
         1         5        1.135255e+00
         2         5        4.516565e-02
         3         5       -7.783991e-01
         4         5       -9.765204e-01
         5         5       -8.346386e-01
         6         5       -6.063667e-01
         7         5        2.229389e+00
         8         5        1.656423e+00
         9         5       -2.368685e+00
        10         5        3.438701e-01
        11         5       -3.836072e-01
        12         5        1.349705e-01
        13         5       -2.263912e-01
        14         5        9.782789e-01
        15         5        4.238425e-01
        16         5       -8.180798e-01
        17         5       -5.215324e-01
        18         5       -1.419480e-01
        19         5        8.731440e-01
        20         5       -3.921949e-01
        21         5       -1.316422e-01
        22         5       -1.783555e+00
        23         5        9.194701e-02
        24         5        5.264423e-01
        25         5        6.163102e-01
        26         5        1.061878e+00
        27         5        1.254146e-01
        28         5       -1.485983e+00
        29         5        3.429153e-01
        30         5        1.228473e+00
        31         5        2.946927e-01
        32         5       -6.100995e-01
        33         5        1.329056e+00
        34         5        4.795126e-01
        35         5        1.344752e+00
        36         5       -1.511717e+00
        37         5        8.678810e-01
        38         5        8.218938e-01
        39         5        2.066881e+00
        40         5        2.264534e-02
        41         5       -8.607329e-01
        42         5        2.190058e+00
        43         5       -4.237497e-02
        44         5       -3.653414e-01
        45         5        1.012290e+00
        46         5        1.444018e-01
        47         5       -3.863050e-01
        48         5        2.746271e-01
        49         5        1.203196e+00
        50         5        2.116433e-01
        51         5        3.858477e-01
        52         5        1.000171e+00
        53         5        9.355600e-01
        54         5        6.330873e-01
        55         5        4.456991e-01
        56         5        4.045828e-03
        57         5       -9.044436e-01
        58         5       -2.992469e-01
        59         5        8.212767e-01
        60         5       -7.573942e-01
        61         5        1.283178e-01
        62         5       -9.856161e-01
        63         5       -2.341581e+00
        64         5        6.634402e-01
        65         5        1.223304e+00
        66         5        6.111799e-01
        67         5        8.454622e-01
        68         5       -4.162305e-01
        69         5        1.403497e+00
        70         5       -8.658570e-01
        71         5       -4.828752e-01
        72         5       -2.746219e-01
        73         5       -5.076073e-01
        74         5        7.688384e-02
        75         5       -9.250194e-01
        76         5        1.724396e-01
        77         5       -3.791232e-01
        78         5       -2.315005e-01
        79         5        1.785056e-01
        80         5       -1.007409e+00
        81         5       -1.003190e+00
        82         5       -1.782711e+00
        83         5        3.245671e-01
        84         5        3.419937e-01
        85         5        1.500680e+00
        86         5        4.904650e-01
        87         5        2.536341e-01
        88         5       -2.633354e-01
        89         5        4.005242e-01
        90         5       -2.915387e-01
        91         5        6.661421e-01
        92         5       -6.000649e-01
        93         5       -2.493225e-01
        94         5        3.896744e-01
        95         5       -4.651980e-01
        96         5        1.768254e+00
        97         5        3.271913e-01
        98         5       -1.947626e+00
        99         5        6.627878e-01
       100         5        1.572879e-01
;

param theta:=
    1        1.252760e+00
    2        2.540798e+00
    3       -5.514845e-01
    4       -7.549671e-01
    5        1.174568e+00
;
param X_true:=
    1        6.151463e-02
    2       -3.657271e+00
    3        3.882749e+00
    4       -3.270228e+00
    5       -1.630580e+00
    6       -2.868632e-01
    7        6.856636e+00
    8        3.321267e+00
    9       -3.717368e+00
   10        3.944252e+00
   11        2.544617e+00
   12       -5.626588e-01
   13        6.519247e+00
   14        1.627169e-01
   15        4.129764e-01
   16        2.944037e+00
   17        3.371843e+00
   18       -3.632163e-01
   19       -1.401424e+00
   20        1.074275e+00
   21        3.637179e+00
   22       -1.833016e+00
   23       -1.082709e+00
   24       -3.228262e+00
   25        1.549599e+00
   26        2.755057e+00
   27        4.391951e+00
   28       -5.393658e+00
   29        2.147824e+00
   30        1.363615e+00
   31        3.169886e+00
   32        2.753918e+00
   33        7.085374e+00
   34       -2.191137e+00
   35        5.117884e+00
   36       -2.532117e+00
   37       -8.276194e-01
   38        3.205184e+00
   39        1.277803e+00
   40        3.474626e+00
   41       -2.968270e-01
   42        7.620975e-01
   43       -2.615241e-01
   44        1.519986e+00
   45        4.392780e+00
   46       -6.205213e-02
   47        2.345189e+00
   48       -5.755365e+00
   49        3.759233e+00
   50       -4.462949e-01
   51       -2.641192e+00
   52        5.374626e+00
   53        2.437380e+00
   54        8.006866e-01
   55       -6.979346e-01
   56        5.271288e+00
   57        4.571762e+00
   58       -5.593931e+00
   59        3.217470e-02
   60       -2.479262e+00
   61       -1.740639e+00
   62        1.489050e+00
   63       -3.140645e+00
   64        7.179145e+00
   65       -1.155539e+00
   66       -3.304275e-01
   67        1.798250e+00
   68        2.202508e+00
   69       -5.137525e-01
   70        2.004506e+00
   71       -1.282214e+00
   72        8.903228e-01
   73        3.373479e+00
   74        2.881529e+00
   75       -2.295458e-01
   76       -3.957289e+00
   77       -2.049030e+00
   78       -4.958923e+00
   79        7.659245e+00
   80       -5.310882e+00
   81        2.865114e+00
   82       -6.112677e+00
   83       -2.358245e+00
   84       -8.506264e-01
   85        1.193354e+00
   86        1.158833e-02
   87        6.586523e-01
   88       -7.338614e-01
   89       -4.390178e+00
   90        6.067746e-01
   91        2.059116e+00
   92       -2.828941e+00
   93       -1.594812e+00
   94       -2.697159e+00
   95        1.158700e+00
   96        6.540095e+00
   97        5.613931e-01
   98       -5.253618e-01
   99       -1.378982e+00
  100       -1.162169e-01
;
param X:=
    1        6.151463e-02
    2       -3.657271e+00
    3        3.882749e+00
    4       -7.571333e-01
    5       -1.630580e+00
    6       -1.111613e+00
    7       -1.352812e+00
    8       -1.593651e+00
    9       -3.717368e+00
   10       -7.392654e-01
   11        2.544617e+00
   12        4.329221e-02
   13        5.114865e-01
   14       -1.079811e+00
   15        1.327139e+00
   16       -1.245922e+00
   17       -6.516905e-01
   18        2.077746e+00
   19        2.584065e+00
   20        1.074275e+00
   21        3.637179e+00
   22       -1.833016e+00
   23       -1.959725e-01
   24       -7.567589e-01
   25       -7.201342e-01
   26       -1.271131e+00
   27        4.391951e+00
   28       -1.719903e+00
   29        2.147824e+00
   30        6.668172e-01
   31        4.359092e-02
   32        2.753918e+00
   33       -6.675675e-01
   34       -2.191137e+00
   35       -1.644928e+00
   36       -2.532117e+00
   37       -4.507471e-02
   38        3.205184e+00
   39        2.633612e-01
   40        8.019364e-03
   41        3.222354e-01
   42        3.819064e-01
   43       -7.869192e-01
   44        2.392228e+00
   45        7.031362e-01
   46       -6.205213e-02
   47       -8.507386e-01
   48       -5.755365e+00
   49        8.124414e-01
   50       -1.021067e-01
   51       -2.641192e+00
   52        5.374626e+00
   53        2.437380e+00
   54       -2.137089e-01
   55        1.024219e+00
   56        5.271288e+00
   57       -1.301646e+00
   58        7.548652e-01
   59        8.223265e-01
   60       -2.479262e+00
   61       -1.617466e+00
   62        1.489050e+00
   63       -3.140645e+00
   64        7.179145e+00
   65       -1.155539e+00
   66       -3.304275e-01
   67       -1.859930e+00
   68        2.288879e-01
   69       -9.617771e-01
   70        1.864779e-02
   71       -1.282214e+00
   72        4.621368e-01
   73        1.223476e+00
   74        2.881529e+00
   75       -2.027952e+00
   76       -3.957289e+00
   77       -2.049030e+00
   78        8.821103e-02
   79        7.659245e+00
   80       -1.015026e+00
   81        2.865114e+00
   82       -6.112677e+00
   83       -1.719240e+00
   84       -1.297070e+00
   85       -6.393070e-01
   86        8.768085e-02
   87        6.586523e-01
   88       -7.338614e-01
   89       -1.002276e+00
   90        1.052191e+00
   91        2.059116e+00
   92       -2.828941e+00
   93        6.162923e-01
   94       -1.013790e+00
   95       -4.795457e-01
   96        6.540095e+00
   97       -8.029612e-01
   98       -5.253618e-01
   99        1.549440e+00
  100        9.064733e-01
;
param outliervec:=
    1    0
    2    0
    3    0
    4    1
    5    0
    6    1
    7    1
    8    1
    9    0
   10    1
   11    0
   12    1
   13    1
   14    1
   15    1
   16    1
   17    1
   18    1
   19    1
   20    0
   21    0
   22    0
   23    1
   24    1
   25    1
   26    1
   27    0
   28    1
   29    0
   30    1
   31    1
   32    0
   33    1
   34    0
   35    1
   36    0
   37    1
   38    0
   39    1
   40    1
   41    1
   42    1
   43    1
   44    1
   45    1
   46    0
   47    1
   48    0
   49    1
   50    1
   51    0
   52    0
   53    0
   54    1
   55    1
   56    0
   57    1
   58    1
   59    1
   60    0
   61    1
   62    0
   63    0
   64    0
   65    0
   66    0
   67    1
   68    1
   69    1
   70    1
   71    0
   72    1
   73    1
   74    0
   75    1
   76    0
   77    0
   78    1
   79    0
   80    1
   81    0
   82    0
   83    1
   84    1
   85    1
   86    1
   87    0
   88    0
   89    1
   90    1
   91    0
   92    0
   93    1
   94    1
   95    1
   96    0
   97    1
   98    0
   99    1
  100    1
;